1659942000
1659960000
1660028400
1660046400
1660114800
1660132800
1660201200
1660219200
1660287600
1660297500
1660301100
1660309200
1660546800
1660568400
1660633200
1660654800
1660719600
1660737600
1660806000
1660824000
1660892400
1660903200
1660654800
1660658400
1661151600
1661169600
1661238000
1661256000
1661324400
1661342400
1661410800
1661428800
1661497200
1661508000
1661511600
1661518800
1661756400
1661774400
1661842800
1661860800
1661929200
1661947200
